c Qdimacs file from skolem function generator
p cnf 409 1020
c a 279 280 281 282 283 284 285 286 287 288 289 290 291 292 293 294 295 296 297 298 299 300 301 302 303 304 305 306 307 308 309 310 311 312 313 314 315 316 317 318 319 320 321 322 323 324 325 326 327 328 329 330 331 332 333 334 335 336 337 338 339 340 341 342 343 344 345 346 347 348 349 350 351 352 353 354 355 356 357 358 359 360 361 362 363 364 365 366 367 368 369 370 371 372 373 374 375 376 377 378 379 380 381 382 383 384 385 386 387 388 389 390 391 392 393 394 395 396 397 398 399 400 401 402 403 404 405 406 407 408 0
c e 216 217 218 219 220 221 222 223 224 225 226 227 228 229 230 231 232 233 234 235 236 237 238 239 240 241 242 243 244 245 246 247 248 249 250 251 252 253 254 255 256 257 258 259 260 261 262 263 264 265 266 267 268 269 270 271 272 273 274 275 276 277 278 1 2 3 4 5 6 7 8 9 10 11 12 13 14 15 16 17 18 19 20 21 22 23 24 25 26 27 28 29 30 31 32 33 34 35 36 37 38 39 40 41 42 43 44 45 46 47 48 49 50 51 52 53 54 55 56 57 58 59 60 61 62 63 64 65 66 67 68 69 70 71 72 73 74 75 76 77 78 79 80 81 82 83 84 85 86 87 88 89 90 91 92 93 94 95 96 97 98 99 100 101 102 103 104 105 106 107 108 109 110 111 112 113 114 115 116 117 118 119 120 121 122 123 124 125 126 127 128 129 130 131 132 133 134 135 136 137 138 139 140 141 142 143 144 145 146 147 148 149 150 151 152 153 154 155 156 157 158 159 160 161 162 163 164 165 166 167 168 169 170 171 172 173 174 175 176 177 178 179 180 181 182 183 184 185 186 187 188 189 190 191 192 193 194 195 196 197 198 199 200 201 202 203 204 205 206 207 208 209 210 211 212 213 214 215 409 0
4 342 5 -164 -194 0
4 -342 -5 -164 -194 0
-4 194 0
-4 -342 5 0
-4 164 0
-4 342 -5 0
5 -343 -6 0
5 343 -150 -155 0
-5 343 150 0
-5 -343 6 0
-5 343 155 0
6 -7 -28 0
6 20 25 -28 0
-6 28 0
-6 7 -20 0
-6 7 -25 0
7 -8 -9 0
-7 8 0
-7 9 0
8 287 -288 -289 0
8 -287 288 290 0
8 -287 288 289 0
-8 -288 289 0
-8 -287 -289 -290 0
-8 -287 -288 0
-8 287 288 0
9 10 -14 18 0
-9 -10 0
-9 14 0
-9 -18 0
10 -11 -13 0
10 11 13 0
-10 11 -13 0
-10 -11 13 0
11 290 -291 0
11 289 -291 -12 0
-11 291 0
-11 -290 12 0
-11 -289 -290 0
12 287 288 0
-12 -287 0
-12 -288 0
13 -287 289 0
13 -288 289 0
-13 -289 0
-13 287 288 0
14 -15 17 0
14 -16 17 0
14 287 17 0
-14 -17 0
-14 -287 15 16 0
15 -288 -289 0
-15 288 0
-15 289 0
16 288 289 -291 0
16 288 -289 290 0
16 288 289 -290 0
-16 -288 0
-16 -289 -290 0
-16 289 290 291 0
17 287 -288 -289 0
17 287 -289 290 0
17 287 288 289 -290 0
-17 -288 289 0
-17 289 290 0
-17 -287 0
-17 288 -289 -290 0
18 -288 -19 0
18 288 290 19 0
18 -288 -290 0
18 287 290 -19 0
-18 288 -290 0
-18 -288 290 19 0
-18 -287 288 -19 0
19 289 -291 0
-19 -289 0
-19 291 0
20 -258 -21 -23 0
20 -21 23 24 0
-20 21 0
-20 23 -24 0
-20 258 -23 0
21 -8 -14 -22 0
-21 8 0
-21 14 0
-21 22 0
22 10 -18 0
-22 -10 0
-22 18 0
23 338 -339 0
-23 -338 0
-23 339 0
24 -258 -321 0
24 258 321 0
-24 258 -321 0
-24 -258 321 0
25 21 24 26 0
25 -258 21 -26 0
-25 -21 0
-25 258 -26 0
-25 -24 26 0
26 -338 -27 0
-26 338 0
-26 27 0
27 -8 10 14 18 0
-27 -18 0
-27 -14 0
-27 8 0
-27 -10 0
28 29 -33 -46 -138 0
-28 -29 0
-28 138 0
-28 46 0
-28 33 0
29 -266 -26 31 0
29 26 30 31 0
-29 -31 0
-29 266 -26 0
-29 26 -30 0
30 -266 -329 0
30 266 329 0
-30 266 -329 0
-30 -266 329 0
31 14 -22 -32 0
-31 32 0
-31 22 0
-31 -14 0
32 287 288 -290 0
32 287 -288 289 0
32 287 288 -289 0
-32 -287 0
-32 -288 -289 0
-32 288 289 290 0
33 -39 -40 0
33 -34 44 0
33 -34 -40 0
33 -39 44 0
-33 40 -44 0
-33 34 39 0
34 21 27 -36 0
34 21 -27 -35 0
-34 -21 0
-34 -27 35 0
-34 27 36 0
35 275 276 339 0
35 275 276 -338 0
35 275 -276 338 -339 0
-35 -276 -338 0
-35 -276 339 0
-35 -275 0
-35 276 338 -339 0
36 37 -38 0
-36 -37 0
-36 38 0
37 -276 338 339 0
37 276 338 -339 0
-37 -338 0
-37 -276 -339 0
-37 276 339 0
38 -275 -338 0
38 275 338 0
-38 275 -338 0
-38 -275 338 0
39 -275 -338 -21 0
39 275 276 338 -21 0
-39 -276 338 0
-39 275 -338 0
-39 21 0
-39 -275 338 0
40 -280 27 -41 -43 0
-40 43 0
-40 280 0
-40 41 0
-40 -27 0
41 -42 -9 0
-41 42 0
-41 9 0
42 -287 -288 0
42 -287 -289 -290 0
-42 287 0
-42 288 290 0
-42 288 289 0
43 296 297 -340 0
-43 340 0
-43 -297 0
-43 -296 0
44 -217 280 26 0
44 -217 -26 -45 0
44 217 -280 26 0
44 217 -26 45 0
-44 217 -26 -45 0
-44 -217 -280 26 0
-44 -217 -26 45 0
-44 217 280 26 0
45 -304 337 0
45 -305 337 0
-45 -337 0
-45 304 305 0
46 219 47 -48 -55 0
46 -219 -47 -48 -55 0
-46 55 0
-46 -219 47 0
-46 48 0
-46 219 -47 0
47 -282 7 0
-47 282 0
-47 -7 0
48 -31 49 -51 0
48 31 -50 -51 0
-48 51 0
-48 31 50 0
-48 -31 -49 0
49 -266 -281 0
49 281 30 0
-49 266 -281 0
-49 281 -30 0
50 -259 -322 0
50 259 322 0
-50 259 -322 0
-50 -259 322 0
51 52 54 0
51 -53 54 0
51 21 54 0
-51 -54 0
-51 -21 -52 53 0
52 -329 338 -339 0
-52 329 0
-52 -338 0
-52 339 0
53 -268 -304 0
53 268 -269 304 -305 0
53 268 269 304 305 0
-53 -268 304 0
-53 268 -269 305 0
-53 268 -304 0
-53 269 304 -305 0
54 282 -7 24 0
54 -258 -282 -7 0
-54 7 0
-54 258 -282 0
-54 282 -24 0
55 56 -58 90 -95 0
-55 58 0
-55 -90 0
-55 -56 0
-55 95 0
56 -272 335 0
56 272 -335 41 0
56 272 -335 57 0
-56 -272 -335 0
-56 272 335 0
-56 272 -41 -57 0
57 296 297 0
-57 -296 0
-57 -297 0
58 -59 -69 81 87 0
-58 69 0
-58 -87 0
-58 59 0
-58 -81 0
59 60 62 64 68 0
59 -60 -62 64 68 0
-59 -64 0
-59 -60 62 0
-59 -68 0
-59 60 -62 0
60 323 -61 0
60 -323 61 0
-60 -323 -61 0
-60 323 61 0
61 324 -325 0
-61 -324 0
-61 325 0
62 260 -63 0
62 -260 63 0
-62 -260 -63 0
-62 260 63 0
63 261 -262 0
-63 -261 0
-63 262 0
64 -65 -66 -67 0
-64 65 0
-64 66 0
-64 67 0
65 323 -324 0
65 -323 324 325 0
-65 -323 -324 0
-65 324 -325 0
-65 323 324 0
66 298 -299 333 -334 0
-66 299 0
-66 -333 0
-66 -298 0
-66 334 0
67 -310 334 0
67 311 -333 0
67 311 334 0
67 -310 -333 0
-67 310 -311 0
-67 333 -334 0
68 -270 333 0
68 270 -271 334 0
68 270 -333 0
68 271 333 -334 0
-68 -270 -333 0
-68 270 -271 333 -334 0
-68 270 271 333 334 0
69 70 71 -72 -75 0
69 -70 -71 -72 -75 0
-69 75 0
-69 -70 71 0
-69 72 0
-69 70 -71 0
70 -326 -327 0
70 -326 -328 0
-70 326 0
-70 327 328 0
71 -263 -264 0
71 -263 -265 0
-71 263 0
-71 264 265 0
72 -229 -73 0
72 -235 -74 0
72 -229 -235 0
72 -73 -74 0
-72 235 73 0
-72 229 74 0
73 -236 -299 0
73 236 299 0
-73 236 -299 0
-73 -236 299 0
74 -230 -293 0
74 230 293 0
-74 230 -293 0
-74 -230 293 0
75 -342 -76 -77 -78 0
-75 78 0
-75 342 0
-75 77 0
-75 76 0
76 -278 -341 0
76 278 341 0
-76 278 -341 0
-76 -278 341 0
77 -229 235 -292 298 0
77 229 -235 292 -298 0
77 229 235 292 298 0
77 -229 -235 -292 -298 0
-77 -229 292 0
-77 229 -292 0
-77 235 -298 0
-77 -235 298 0
78 -79 -80 0
-78 79 0
-78 80 0
79 -244 247 -307 310 0
79 244 -247 307 -310 0
79 244 247 307 310 0
79 -244 -247 -307 -310 0
-79 -244 307 0
-79 244 -307 0
-79 247 -310 0
-79 -247 310 0
80 -220 253 -283 316 0
80 220 -253 283 -316 0
80 220 253 283 316 0
80 -220 -253 -283 -316 0
-80 -220 283 0
-80 220 -283 0
-80 253 -316 0
-80 -253 316 0
81 -285 -82 85 0
81 285 -82 -85 0
81 286 -82 85 0
-81 82 0
-81 -285 -85 0
-81 285 -286 85 0
82 300 -333 -84 0
82 -300 333 -84 0
82 300 -83 -84 0
-82 84 0
-82 -300 -333 0
-82 300 333 83 0
83 301 -334 0
83 -301 334 0
-83 -301 -334 0
-83 301 334 0
84 326 -327 0
84 -326 327 328 0
-84 -326 -327 0
-84 327 -328 0
-84 326 327 0
85 326 -86 0
85 -326 86 0
-85 -326 -86 0
-85 326 86 0
86 327 -328 0
-86 -327 0
-86 328 0
87 285 286 -88 0
87 -285 60 -88 0
87 285 -60 -88 0
-87 88 0
-87 -285 -60 0
-87 285 -286 60 0
88 -65 -89 0
-88 65 0
-88 89 0
89 -298 333 0
89 298 -299 334 0
89 298 -333 0
89 299 333 -334 0
-89 -298 -333 0
-89 298 -299 333 -334 0
-89 298 299 333 334 0
90 246 -91 0
90 -246 91 0
-90 -246 -91 0
-90 246 91 0
91 -309 -92 0
91 -283 92 0
-91 283 92 0
-91 309 -92 0
92 -284 -321 93 94 0
-92 321 0
-92 -94 0
-92 284 0
-92 -93 0
93 292 293 0
-93 -292 0
-93 -293 0
94 314 -315 0
-94 -314 0
-94 315 0
95 -96 -107 -115 -123 0
-95 123 0
-95 96 0
-95 115 0
-95 107 0
96 65 -97 102 -103 0
96 -65 -97 -102 -103 0
-96 103 0
-96 -65 102 0
-96 97 0
-96 65 -102 0
97 -98 -99 -100 -101 0
-97 101 0
-97 98 0
-97 100 0
-97 99 0
98 -241 273 -304 336 0
98 241 -273 304 -336 0
98 241 273 304 336 0
98 -241 -273 -304 -336 0
-98 -241 304 0
-98 241 -304 0
-98 273 -336 0
-98 -273 336 0
99 -221 256 -284 319 0
99 221 -256 284 -319 0
99 221 256 284 319 0
99 -221 -256 -284 -319 0
-99 -221 284 0
-99 221 -284 0
-99 256 -319 0
-99 -256 319 0
100 -222 243 -285 306 0
100 222 -243 285 -306 0
100 222 243 285 306 0
100 -222 -243 -285 -306 0
-100 -222 285 0
-100 222 -285 0
-100 243 -306 0
-100 -243 306 0
101 -255 267 -318 330 0
101 255 -267 318 -330 0
101 255 267 318 330 0
101 -255 -267 -318 -330 0
-101 -255 318 0
-101 255 -318 0
-101 267 -330 0
-101 -267 330 0
102 260 -261 0
102 -260 261 262 0
-102 -260 -261 0
-102 261 -262 0
-102 260 261 0
103 -84 85 -104 105 0
103 84 -85 104 -105 0
103 84 85 104 105 0
103 -84 -85 -104 -105 0
-103 -84 104 0
-103 84 -104 0
-103 85 -105 0
-103 -85 105 0
104 263 -264 0
104 -263 264 265 0
-104 -263 -264 0
-104 264 -265 0
-104 263 264 0
105 263 -106 0
105 -263 106 0
-105 -263 -106 0
-105 263 106 0
106 264 -265 0
-106 -264 0
-106 265 0
107 -108 -111 -112 113 0
107 -108 111 112 113 0
-107 -113 0
-107 -111 112 0
-107 108 0
-107 111 -112 0
108 -241 94 109 0
108 -241 -94 -109 0
108 94 109 -110 0
108 -94 -109 -110 0
-108 -94 109 0
-108 94 -109 0
-108 241 110 0
109 251 -252 0
-109 -251 0
-109 252 0
110 -242 -305 0
110 242 305 0
-110 242 -305 0
-110 -242 305 0
111 256 -257 0
-111 -256 0
-111 257 0
112 319 -320 0
-112 -319 0
-112 320 0
113 57 -114 0
113 302 -337 57 0
-113 -57 0
-113 -302 114 0
-113 337 114 0
114 -280 303 0
-114 280 0
-114 -303 0
115 -247 116 -118 0
115 116 -117 -118 0
-115 118 0
-115 -116 0
-115 247 117 0
116 237 -300 0
116 237 -238 301 0
-116 -237 0
-116 300 -301 0
-116 238 300 0
117 -248 -311 0
117 248 311 0
-117 248 -311 0
-117 -248 311 0
118 119 -121 -122 0
118 -120 121 122 0
118 119 121 122 0
118 -120 -121 -122 0
-118 121 -122 0
-118 -121 122 0
-118 -119 120 0
119 -323 -324 0
119 -323 -325 0
-119 323 0
-119 324 325 0
120 -260 -261 0
120 -260 -262 0
-120 260 0
-120 261 262 0
121 249 250 0
-121 -249 0
-121 -250 0
122 312 313 0
-122 -312 0
-122 -313 0
123 124 125 -126 -131 0
123 -124 -125 -126 -131 0
-123 131 0
-123 -124 125 0
-123 126 0
-123 124 -125 0
124 314 315 0
-124 -314 0
-124 -315 0
125 251 252 0
-125 -251 0
-125 -252 0
126 127 128 -129 -130 0
126 -127 -128 -129 -130 0
126 127 128 129 130 0
126 -127 -128 129 130 0
-126 127 -128 0
-126 -127 128 0
-126 129 -130 0
-126 -129 130 0
127 216 278 0
-127 -216 0
-127 -278 0
128 279 341 0
-128 -279 0
-128 -341 0
129 249 -250 0
-129 -249 0
-129 250 0
130 312 -313 0
-130 -312 0
-130 313 0
131 132 133 134 -135 0
131 132 -133 -134 -135 0
-131 135 0
-131 -133 134 0
-131 -132 0
-131 133 -134 0
132 -237 300 0
132 238 300 -301 0
-132 -300 0
-132 237 -238 0
-132 237 301 0
133 253 -254 0
-133 -253 0
-133 254 0
134 316 -317 0
-134 -316 0
-134 317 0
135 120 136 137 0
135 -119 -136 -137 0
135 -119 136 137 0
135 120 -136 -137 0
-135 136 -137 0
-135 -136 137 0
-135 119 -120 0
136 285 286 0
-136 -285 0
-136 -286 0
137 222 223 0
-137 -222 0
-137 -223 0
138 27 139 -143 0
138 -27 -140 -143 0
-138 143 0
-138 27 -139 0
-138 -27 140 0
139 -274 337 0
139 274 -337 41 0
139 274 -337 43 0
-139 -274 -337 0
-139 274 337 0
-139 274 -41 -43 0
140 -141 142 0
140 -274 -142 0
-140 141 142 0
-140 274 -142 0
141 -274 -337 0
141 274 337 0
-141 274 -337 0
-141 -274 337 0
142 304 305 -338 0
-142 338 0
-142 -305 0
-142 -304 0
143 -144 -145 0
143 -21 -52 -145 0
-143 145 0
-143 21 144 0
-143 52 144 0
144 -268 -331 0
144 268 -269 331 -332 0
144 268 269 331 332 0
-144 -268 331 0
-144 268 -269 332 0
-144 268 -331 0
-144 269 331 -332 0
145 31 146 -149 0
145 -31 146 -148 0
-145 -146 0
-145 -31 148 0
-145 31 149 0
146 338 147 0
146 27 147 0
146 277 -338 -27 0
-146 338 -147 0
-146 27 -147 0
-146 -277 -338 -27 0
147 -277 -340 0
147 277 340 0
-147 277 -340 0
-147 -277 340 0
148 218 281 -50 0
148 218 259 -281 0
-148 -218 0
-148 -259 -281 0
-148 281 50 0
149 -218 -281 0
149 218 281 0
-149 218 -281 0
-149 -218 281 0
150 62 105 -151 154 0
-150 -62 0
-150 -154 0
-150 151 0
-150 -105 0
151 -152 -153 -125 -127 0
-151 127 0
-151 152 0
-151 125 0
-151 153 0
152 260 261 0
-152 -260 0
-152 -261 0
153 263 264 0
-153 -263 0
-153 -264 0
154 -268 270 0
154 268 269 -270 0
154 269 270 -271 0
-154 268 -269 0
-154 -268 -270 0
-154 268 270 271 0
155 -156 -160 -162 -163 0
-155 163 0
-155 156 0
-155 162 0
-155 160 0
156 157 -158 0
156 270 -271 -158 0
-156 158 0
-156 -270 -157 0
-156 271 -157 0
157 268 -269 0
-157 -268 0
-157 269 0
158 275 276 277 -159 0
-158 159 0
-158 -277 0
-158 -275 0
-158 -276 0
159 267 272 273 274 0
-159 -274 0
-159 -273 0
-159 -267 0
-159 -272 0
160 249 250 -137 -161 0
-160 -249 0
-160 161 0
-160 137 0
-160 -250 0
161 217 218 219 221 0
-161 -221 0
-161 -219 0
-161 -217 0
-161 -218 0
162 257 258 259 266 0
-162 -266 0
-162 -259 0
-162 -257 0
-162 -258 0
163 253 254 255 256 0
-163 -256 0
-163 -255 0
-163 -253 0
-163 -254 0
164 -97 -165 -176 -190 0
-164 190 0
-164 97 0
-164 176 0
-164 165 0
165 -166 -169 -170 -173 0
-165 173 0
-165 166 0
-165 170 0
-165 169 0
166 225 288 167 168 0
166 -225 -288 167 168 0
-166 -167 0
-166 -225 288 0
-166 -168 0
-166 225 -288 0
167 -262 325 0
-167 262 0
-167 -325 0
168 227 -290 0
-168 -227 0
-168 290 0
169 -231 232 -294 295 0
169 231 -232 294 -295 0
169 231 232 294 295 0
169 -231 -232 -294 -295 0
-169 -231 294 0
-169 231 -294 0
-169 232 -295 0
-169 -232 295 0
170 240 303 171 172 0
170 -240 -303 171 172 0
-170 -171 0
-170 -240 303 0
-170 -172 0
-170 240 -303 0
171 -245 308 0
-171 245 0
-171 -308 0
172 226 -289 0
-172 -226 0
-172 289 0
173 260 323 174 175 0
173 -260 -323 174 175 0
-173 -174 0
-173 -260 323 0
-173 -175 0
-173 260 -323 0
174 -227 290 0
-174 227 0
-174 -290 0
175 245 -308 0
-175 -245 0
-175 308 0
176 -177 -181 -184 -187 0
-176 187 0
-176 177 0
-176 184 0
-176 181 0
177 317 178 -179 0
177 -254 178 -179 0
-177 179 0
-177 -178 0
-177 254 -317 0
178 -238 301 0
-178 238 0
-178 -301 0
179 -297 180 0
179 234 180 0
-179 -180 0
-179 -234 297 0
180 238 -301 0
-180 -238 0
-180 301 0
181 263 326 182 183 0
181 -263 -326 182 183 0
-181 -182 0
-181 -263 326 0
-181 -183 0
-181 263 -326 0
182 261 -324 0
-182 -261 0
-182 324 0
183 -254 317 0
-183 254 0
-183 -317 0
184 250 313 185 186 0
184 -250 -313 185 186 0
-184 -185 0
-184 -250 313 0
-184 -186 0
-184 250 -313 0
185 264 -327 0
-185 -264 0
-185 327 0
186 262 -325 0
-186 -262 0
-186 325 0
187 246 309 188 189 0
187 -246 -309 188 189 0
-187 -188 0
-187 -246 309 0
-187 -189 0
-187 246 -309 0
188 234 -297 0
-188 -234 0
-188 297 0
189 -264 327 0
-189 264 0
-189 -327 0
190 -191 -79 -80 -192 0
-190 192 0
-190 191 0
-190 80 0
-190 79 0
191 -270 271 -333 334 0
191 270 -271 333 -334 0
191 270 271 333 334 0
191 -270 -271 -333 -334 0
-191 -270 333 0
-191 270 -333 0
-191 271 -334 0
-191 -271 334 0
192 -328 -193 0
192 265 -193 0
-192 193 0
-192 -265 328 0
193 226 251 0
193 -289 -314 0
193 226 -314 0
193 251 -289 0
-193 -226 289 0
-193 -251 314 0
194 -195 -206 -214 -215 0
-194 215 0
-194 195 0
-194 214 0
-194 206 0
195 -77 -196 -202 -203 0
-195 203 0
-195 77 0
-195 202 0
-195 196 0
196 -24 -197 -198 -199 0
-196 199 0
-196 24 0
-196 198 0
-196 197 0
197 -272 -335 0
197 272 335 0
-197 272 -335 0
-197 -272 335 0
198 -216 223 -279 286 0
198 216 -223 279 -286 0
198 216 223 279 286 0
198 -216 -223 -279 -286 0
-198 -216 279 0
-198 216 -279 0
-198 223 -286 0
-198 -223 286 0
199 219 282 -76 -200 0
199 -219 -282 -76 -200 0
-199 200 0
-199 -219 282 0
-199 76 0
-199 219 -282 0
200 -268 -331 -201 0
200 268 331 -201 0
-200 201 0
-200 -268 331 0
-200 268 -331 0
201 -217 -280 0
201 217 280 0
-201 217 -280 0
-201 -217 280 0
202 -233 252 -296 315 0
202 233 -252 296 -315 0
202 233 252 296 315 0
202 -233 -252 -296 -315 0
-202 -233 296 0
-202 233 -296 0
-202 252 -315 0
-202 -252 315 0
203 -204 -50 -74 -205 0
-203 205 0
-203 204 0
-203 74 0
-203 50 0
204 -276 -339 0
204 276 339 0
-204 276 -339 0
-204 -276 339 0
205 -269 -332 0
205 269 332 0
-205 269 -332 0
-205 -269 332 0
206 -207 -210 -211 -212 0
-206 212 0
-206 207 0
-206 211 0
-206 210 0
207 249 312 -208 209 0
207 -249 -312 -208 209 0
-207 -209 0
-207 -249 312 0
-207 208 0
-207 249 -312 0
208 -228 257 -291 320 0
208 228 -257 291 -320 0
208 228 257 291 320 0
208 -228 -257 -291 -320 0
-208 -228 291 0
-208 228 -291 0
-208 257 -320 0
-208 -257 320 0
209 239 -302 0
209 -239 302 0
-209 -239 -302 0
-209 239 302 0
210 -265 287 0
210 -224 328 0
210 -224 -265 0
210 287 328 0
-210 265 -328 0
-210 224 -287 0
211 237 261 0
211 -300 -324 0
211 237 -324 0
211 261 -300 0
-211 -237 300 0
-211 -261 324 0
212 -251 -343 -213 0
212 314 -343 -213 0
-212 213 0
-212 343 0
-212 251 -314 0
213 -237 -287 0
213 224 300 0
213 224 -237 0
213 -287 300 0
-213 -224 287 0
-213 237 -300 0
214 -38 -141 -147 -149 0
-214 149 0
-214 38 0
-214 147 0
-214 141 0
215 -30 -73 -110 -117 0
-215 117 0
-215 30 0
-215 110 0
-215 73 0
409 0
2 4 0
-2 -4 0
3 4 0
-3 -4 0
3 0

